100 172 155 12 59 143 136 6 170 63 118 134 130 192 32 50 145 22 80 178 95 79 158 81 115 17 34 157 120 141 1 39 83 
68 197 133 40 24 164 20 110 198 129 163 51 28 113 58 74 194 41 87 33 91 193 93 8 60 73 135 76 75 64 
84 153 108 152 167 119 57 15 102 196 14 48 161 38 114 109 188 139 166 86 106 27 72 112 189 101 55 90 116 126 154 107 96 11 13 82 66 185 2 97 30 146 148 36 67 175 
54 140 37 177 127 199 42 5 62 77 181 162 132 150 180 183 156 179 184 124 7 44 10 25 104 122 159 46 144 137 121 71 174 123 70 19 
4 92 147 195 182 9 142 200 78 49 131 3 43 18 169 98 16 85 45 117 56 160 168 94 99 151 173 21 187 69 125 
47 61 31 165 65 128 53 23 89 176 88 105 191 190 111 52 
149 103 35 29 171 138 26 186 

